
Welcome to IBM(R) ILOG(R) CPLEX(R) Interactive Optimizer 22.1.1.0
  with Simplex, Mixed Integer & Barrier Optimizers
5725-A06 5725-A29 5724-Y48 5724-Y49 5724-Y54 5724-Y55 5655-Y21
Copyright IBM Corp. 1988, 2022.  All Rights Reserved.

Type 'help' for a list of available commands.
Type 'help' followed by a command name for more
information on commands.

CPLEX> Selected objective sense:  MINIMIZE
Selected objective  name:  00000000
Selected RHS        name:  RHS1
Selected bound      name:  BOUND
Problem 'ee.mps' read.
Read time = 0.03 sec. (3.14 ticks)
CPLEX> New value for time limit in seconds: 7200
CPLEX> New value for parallel optimization mode: -1
CPLEX> New value for default parallel thread count: 40
CPLEX> New value for mixed integer optimality gap tolerance: 1e-13
CPLEX> Version identifier: 22.1.1.0 | 2022-11-28 | 9160aff4d
CPXPARAM_Threads                                 40
CPXPARAM_Parallel                                -1
CPXPARAM_TimeLimit                               7200
CPXPARAM_MIP_Tolerances_MIPGap                   1e-13
Found incumbent of value 0.000000 after 0.00 sec. (0.31 ticks)
Tried aggregator 2 times.
MIP Presolve eliminated 180 rows and 2745 columns.
MIP Presolve modified 5862 coefficients.
Aggregator did 713 substitutions.
Reduced MIP has 3624 rows, 7739 columns, and 28645 nonzeros.
Reduced MIP has 7739 binaries, 0 generals, 0 SOSs, and 0 indicators.
Presolve time = 0.07 sec. (68.56 ticks)
Probing time = 0.03 sec. (5.46 ticks)
Tried aggregator 1 time.
Detecting symmetries...
Reduced MIP has 3624 rows, 7739 columns, and 28645 nonzeros.
Reduced MIP has 7739 binaries, 0 generals, 0 SOSs, and 0 indicators.
Presolve time = 0.03 sec. (21.85 ticks)
Probing time = 0.02 sec. (5.27 ticks)
Clique table members: 18552.
MIP emphasis: balance optimality and feasibility.
MIP search method: dynamic search.
Parallel mode: opportunistic, using up to 40 threads.
Root relaxation solution time = 0.08 sec. (62.84 ticks)

        Nodes                                         Cuts/
   Node  Left     Objective  IInf  Best Integer    Best Bound    ItCnt     Gap

*     0+    0                            0.0000  -1.31000e+13              --- 
      0     0  -1.30900e+13    41        0.0000  -1.30900e+13     1715     --- 
*     0+    0                      -1.30900e+13  -1.30900e+13             0.00%
*     0+    0                      -1.30900e+13  -1.30900e+13             0.00%
      0     0  -1.30900e+13    84  -1.30900e+13      Cuts: 51     3087    0.00%
      0     0  -1.30900e+13   129  -1.30900e+13      Cuts: 64     3456    0.00%
*     0+    0                      -1.30900e+13  -1.30900e+13             0.00%
*     0+    0                      -1.30900e+13  -1.30900e+13             0.00%

Repeating presolve.
Tried aggregator 2 times.
MIP Presolve eliminated 1393 rows and 3707 columns.
MIP Presolve modified 13 coefficients.
Aggregator did 676 substitutions.
Reduced MIP has 1555 rows, 3257 columns, and 11739 nonzeros.
Reduced MIP has 3257 binaries, 0 generals, 0 SOSs, and 0 indicators.
Presolve time = 0.05 sec. (59.39 ticks)
Probing fixed 40 vars, tightened 0 bounds.
Probing time = 0.04 sec. (11.72 ticks)
Tried aggregator 2 times.
MIP Presolve eliminated 43 rows and 54 columns.
Aggregator did 19 substitutions.
Reduced MIP has 1493 rows, 3181 columns, and 11417 nonzeros.
Reduced MIP has 3181 binaries, 0 generals, 0 SOSs, and 0 indicators.
Presolve time = 0.02 sec. (17.74 ticks)
Probing time = 0.04 sec. (10.80 ticks)
Tried aggregator 1 time.
Detecting symmetries...
MIP Presolve eliminated 24 rows and 12 columns.
Reduced MIP has 1469 rows, 3169 columns, and 11345 nonzeros.
Reduced MIP has 3169 binaries, 0 generals, 0 SOSs, and 0 indicators.
Presolve time = 0.01 sec. (12.50 ticks)
Represolve time = 0.19 sec. (130.67 ticks)
Probing time = 0.04 sec. (7.96 ticks)
Clique table members: 7436.
MIP emphasis: balance optimality and feasibility.
MIP search method: dynamic search.
Parallel mode: opportunistic, using up to 40 threads.
Root relaxation solution time = 0.05 sec. (34.48 ticks)

        Nodes                                         Cuts/
   Node  Left     Objective  IInf  Best Integer    Best Bound    ItCnt     Gap

*     0+    0                      -1.30900e+13  -1.30900e+13             0.00%
      0     0  -1.30900e+13   104  -1.30900e+13  -1.30900e+13     4547    0.00%
      0     0  -1.30900e+13   115  -1.30900e+13      Cuts: 61     4714    0.00%
      0     0  -1.30900e+13   131  -1.30900e+13      Cuts: 54     4839    0.00%
      0     2  -1.30900e+13   106  -1.30900e+13  -1.30900e+13     4839    0.00%
Elapsed time = 1.79 sec. (1186.90 ticks, tree = 0.02 MB, solutions = 5)

GUB cover cuts applied:  2
Clique cuts applied:  18
Cover cuts applied:  285
Flow cuts applied:  6
Mixed integer rounding cuts applied:  5
Zero-half cuts applied:  7
Lift and project cuts applied:  13
Gomory fractional cuts applied:  15

Root node processing (before b&c):
  Real time             =    1.39 sec. (1186.11 ticks)
Parallel b&c, 40 threads:
  Real time             =    1.27 sec. (196.07 ticks)
  Sync time (average)   =    0.82 sec.
  Wait time (average)   =    0.00 sec.
                          ------------
Total (root+branch&cut) =    2.66 sec. (1382.18 ticks)

Solution pool: 5 solutions saved.

MIP - Integer optimal solution:  Objective = -1.3089999990e+13
Solution time =    2.72 sec.  Iterations = 32584  Nodes = 501
Deterministic time = 1382.21 ticks  (507.99 ticks/sec)

CPLEX> Solution 'p6' written to file 'ee.sol'.
CPLEX> 